CPXPARAM_MIP_Tolerances_MIPGap                   0
Tried aggregator 1 time.
MIP Presolve eliminated 241 rows and 10 columns.
MIP Presolve modified 1298 coefficients.
Reduced MIP has 1997 rows, 1133 columns, and 5746 nonzeros.
Reduced MIP has 902 binaries, 0 generals, 0 SOSs, and 0 indicators.
Presolve time = 0.00 sec. (4.67 ticks)
Found incumbent of value 36.000000 after 0.02 sec. (11.89 ticks)
Probing time = 0.00 sec. (3.05 ticks)
Tried aggregator 1 time.
MIP Presolve modified 2 coefficients.
Reduced MIP has 1997 rows, 1133 columns, and 5746 nonzeros.
Reduced MIP has 902 binaries, 0 generals, 0 SOSs, and 0 indicators.
Presolve time = 0.00 sec. (3.24 ticks)
Probing time = 0.00 sec. (2.96 ticks)
Clique table members: 637.
MIP emphasis: balance optimality and feasibility.
MIP search method: dynamic search.
Parallel mode: deterministic, using up to 8 threads.
Root relaxation solution time = 0.02 sec. (14.09 ticks)

        Nodes                                         Cuts/
   Node  Left     Objective  IInf  Best Integer    Best Bound    ItCnt     Gap

*     0+    0                           36.0000       10.0000            72.22%
*     0+    0                           33.0000       10.0000            69.70%
*     0+    0                           27.0000       10.0000            62.96%
      0     0       10.0000    13       27.0000       10.0000      424   62.96%
      0     0       10.0052    11       27.0000      Cuts: 27      570   62.94%
      0     0       14.0008     8       27.0000      Cuts: 50      588   48.15%
*     0+    0                           18.0000       14.0008            22.22%
      0     0       15.0003     4       18.0000      Cuts: 10      604   16.66%
      0     0       16.0000     4       18.0000      Cuts: 22      640   11.11%
*     0+    0                           16.0000       16.0000             0.00%
      0     0        cutoff             16.0000                    640    0.00%
Elapsed time = 0.19 sec. (78.84 ticks, tree = 0.01 MB, solutions = 5)

Clique cuts applied:  43
Implied bound cuts applied:  2
Mixed integer rounding cuts applied:  12

Root node processing (before b&c):
  Real time             =    0.19 sec. (78.94 ticks)
Parallel b&c, 8 threads:
  Real time             =    0.00 sec. (0.00 ticks)
  Sync time (average)   =    0.00 sec.
  Wait time (average)   =    0.00 sec.
                          ------------
Total (root+branch&cut) =    0.19 sec. (78.94 ticks)
